\ENCODING=ISO-8859-1
\Problem name: IloCplex

Maximize
 obj: 9 у_жхоѕ___#0 + 2 у_жхоѕ___#1 + 5 у_жхоѕ___#2
      + 3 у_жхоѕ___#3 + у_жхоѕ___#4 + 20 у_жхоѕ___#5 + id11#6
Subject To
 c1: 5 у_жхоѕ___#0 + 9 у_жхоѕ___#1 + 2 у_жхоѕ___#2
     + 3 у_жхоѕ___#3 + 9 у_жхоѕ___#4 + 10 у_жхоѕ___#5 <= 20
Bounds
 0 <= у_жхоѕ___#0 <= 1
 0 <= у_жхоѕ___#1 <= 1
 0 <= у_жхоѕ___#2 <= 1
 0 <= у_жхоѕ___#3 <= 1
 0 <= у_жхоѕ___#4 <= 1
 0 <= у_жхоѕ___#5 <= 1
      id11#6 = 0
Binaries
 у_жхоѕ___#0  у_жхоѕ___#1  у_жхоѕ___#2  у_жхоѕ___#3 
 у_жхоѕ___#4  у_жхоѕ___#5 
End
